ignore
ignore
ignore
ignore
0 0 10 10 10 10 37 38 39 2 35 5 36 27 31 30 44 
24 48 10 10 10 10 3 
24 48 10 10 10 10 4 
60 120 10 10 10 10 10 
40 80 10 10 10 10 8 6 
12 24 10 10 10 10 7 
12 24 10 10 10 10 9 
36 72 10 10 10 10 9 
24 48 10 10 10 10 10 
60 120 10 10 10 10 11 25 
24 48 10 10 10 10 34 12 13 
24 48 10 10 10 10 34 14 
12 24 10 10 10 10 34 14 
12 24 10 10 10 10 15 
12 24 10 10 10 10 16 
16 32 10 10 10 10 17 34 
16 32 10 10 10 10 18 34 22 21 
20 40 10 10 10 10 19 34 
12 24 10 10 10 10 20 
12 24 10 10 10 10 23 
24 48 10 10 10 10 23 
40 80 10 10 10 10 23 
24 48 10 10 10 10 24 34 25 
16 32 10 10 10 10 34 25 
56 112 10 10 10 10 26 
12 24 10 10 10 10 34 
28 56 10 10 10 10 28 
12 24 10 10 10 10 29 
12 24 10 10 10 10 32 
24 48 10 10 10 10 32 
24 48 10 10 10 10 32 
16 32 10 10 10 10 33 
24 48 10 10 10 10 47 48 
12 24 10 10 10 10 85 84 64 63 
24 48 10 10 10 10 40 
24 48 10 10 10 10 40 
24 48 10 10 10 10 40 
24 48 10 10 10 10 40 
24 48 10 10 10 10 40 
12 24 10 10 10 10 41 
8 16 10 10 10 10 87 86 42 
12 24 10 10 10 10 43 
24 48 10 10 10 10 45 46 47 48 53 50 49 52 51 62 61 64 63 69 67 68 65 66 88 85 84 83 82 90 89 
12 24 10 10 10 10 54 53 55 50 49 52 51 45 46 47 48 
24 48 10 10 10 10 55 
24 48 10 10 10 10 55 
16 32 10 10 10 10 55 50 49 51 
16 32 10 10 10 10 55 
16 32 10 10 10 10 55 
16 32 10 10 10 10 55 
16 32 10 10 10 10 55 
16 32 10 10 10 10 55 
16 32 10 10 10 10 55 
16 32 10 10 10 10 55 
16 32 10 10 10 10 71 56 58 57 60 59 
12 24 10 10 10 10 69 70 67 68 65 66 62 61 64 63 
12 24 10 10 10 10 69 70 67 68 65 66 62 61 64 63 
12 24 10 10 10 10 69 70 67 68 65 66 62 61 64 63 
12 24 10 10 10 10 69 70 67 68 65 66 62 61 64 63 
12 24 10 10 10 10 69 70 67 68 65 66 62 61 64 63 
12 24 10 10 10 10 72 
12 24 10 10 10 10 72 
4 8 10 10 10 10 72 65 66 73 
4 8 10 10 10 10 72 67 
8 16 10 10 10 10 72 
8 16 10 10 10 10 72 
8 16 10 10 10 10 72 
4 8 10 10 10 10 72 
4 8 10 10 10 10 72 
4 8 10 10 10 10 72 
8 12 10 10 10 10 72 
12 24 10 10 10 10 75 76 73 
12 24 10 10 10 10 74 
12 24 10 10 10 10 94 75 
24 48 10 10 10 10 81 79 80 77 78 
20 40 10 10 10 10 79 80 77 78 84 83 82 81 94 93 92 91 90 89 
12 24 10 10 10 10 82 
12 24 10 10 10 10 90 
12 24 10 10 10 10 89 
12 24 10 10 10 10 89 
12 24 10 10 10 10 87 86 91 
12 24 10 10 10 10 95 
12 24 10 10 10 10 95 
12 24 10 10 10 10 86 
12 24 10 10 10 10 88 
12 24 10 10 10 10 95 
12 24 10 10 10 10 95 
12 24 10 10 10 10 95 
12 24 10 10 10 10 95 
12 24 10 10 10 10 95 
12 24 10 10 10 10 95 
12 24 10 10 10 10 95 
12 24 10 10 10 10 95 
12 24 10 10 10 10 95 
12 24 10 10 10 10 96 
1 13 10 10 10 10 97 
0 0 10 10 10 10 
